p cnf 14 32
14 13 -12 0
14 -12 -9 0
14 -12 -5 0
14 9 -7 0
-14 9 2 0
14 -8 6 0
14 5 -2 0
-14 -5 1 0
-14 -4 1 0
13 12 -10 0
-13 -10 -7 0
13 -10 -1 0
13 -9 -7 0
13 9 -3 0
-13 -7 5 0
12 10 5 0
-12 10 -1 0
12 -9 -7 0
12 9 1 0
12 -2 1 0
-12 2 -1 0
-10 8 7 0
-10 7 -6 0
9 5 3 0
-9 -4 1 0
7 -6 -2 0
-7 -5 1 0
-7 4 1 0
6 5 3 0
-6 -5 -3 0
-5 -4 -3 0
-5 2 1 0
